Maximize
 obj: + x0 + x1 + x2 + x3 + x4 + x5 + x6 + x7 + x8 + x9 + x10 + x11 + x12 + x13 + x14 + x15 + x16 + x17 + x18 + x19 + x20 + x21 + x22 + x23 + x24 + x25 + x26 + x27 + x28 + x29 + x30 + x31 + x32 + x33 + x34 + x35 + x36 + x37 + x38 + x39 + x40 + x41 + x42 + x43 + x44 + x45 + x46 + x47 + x48 + x49 + x50 + x51 + x52 + x53 + x54 + x55 + x56 + x57 + x58 + x59 + x60 + x61 + x62 + x63
Subject To
c0:  + x0 + x1 + x2 + x3 + x4 + x8 + x12 + x16 + x32 + x48 <= 1
c1:  + x4 + x5 + x6 + x7 + x20 + x36 + x52 <= 1
c2:  + x11 + x27 + x43 + x51 + x55 + x56 + x57 + x58 + x59 <= 1
c3:  + x1 + x5 + x9 + x13 + x17 + x33 + x49 <= 1
c4:  + x14 + x30 + x46 + x50 + x54 + x58 + x60 + x61 + x62 <= 1
c5:  + x15 + x31 + x35 + x39 + x43 + x44 + x45 + x46 + x47 <= 1
c6:  + x16 + x17 + x18 + x19 + x20 + x24 + x28 <= 1
c7:  + x10 + x26 + x34 + x38 + x40 + x41 + x42 <= 1
c8:  + x21 + x22 + x23 + x25 + x29 + x37 + x53 <= 1
c9:  + x3 + x7 + x10 + x11 + x13 + x14 <= 1
c10:  + x3 + x19 + x34 + x35 + x49 + x50 <= 1
c11:  + x12 + x28 + x40 + x44 + x52 + x56 <= 1
c12:  + x7 + x15 + x19 + x23 + x51 <= 1
c13:  + x15 + x27 + x28 + x29 + x30 <= 1
c14:  + x38 + x39 + x52 + x53 + x54 <= 1
c15:  + x13 + x29 + x45 + x57 + x60 <= 1
c16:  + x33 + x34 + x36 + x44 + x48 <= 1
c17:  + x2 + x6 + x9 + x10 <= 1
c18:  + x6 + x14 + x18 + x22 + x34 <= 1
c19:  + x8 + x9 + x11 + x24 + x40 <= 1
c20:  + x11 + x19 + x25 + x26 <= 1
c21:  + x33 + x35 + x37 + x41 <= 1
c22:  + x41 + x45 + x49 + x53 <= 1
c23:  + x6 + x13 + x21 <= 1
c24:  + x23 + x24 + x26 + x27 <= 1
c25:  + x11 + x35 + x42 <= 1
c26:  + x48 + x49 + x51 + x52 + x60 <= 1
c27:  + x9 + x25 + x41 + x56 <= 1
c28:  + x6 + x37 + x38 <= 1
c29:  + x10 + x50 + x56 <= 1
c30:  + x11 + x12 + x15 <= 1
c31:  + x2 + x18 + x33 <= 1
c32:  + x21 + x24 + x36 <= 1
c33:  + x22 + x26 + x28 <= 1
c34:  + x31 + x55 + x60 + x63 <= 1
c35:  + x14 + x42 + x44 <= 1
c36:  + x15 + x59 + x61 + x63 <= 1
c37:  + x7 + x9 + x12 <= 1
c38:  + x23 + x35 + x36 + x38 <= 1
c39:  + x32 + x33 + x40 <= 1
c40:  + x36 + x37 + x39 + x40 <= 1
c41:  + x6 + x50 + x53 <= 1
c42:  + x18 + x26 + x29 <= 1
c43:  + x18 + x21 + x49 <= 1
c44:  + x7 + x22 + x38 <= 1
c45:  + x10 + x18 + x25 <= 1
c46:  + x30 + x34 + x45 <= 1
c47:  + x42 + x54 + x56 <= 1
c48:  + x47 + x51 + x62 + x63 <= 1
c49:  + x26 + x50 + x57 <= 1
c50:  + x13 + x37 + x44 <= 1
c51:  + x13 + x25 + x28 <= 1
c52:  + x19 + x27 + x31 <= 1
c53:  + x28 + x32 + x36 <= 1
c54:  + x18 + x48 + x50 <= 1
c55:  + x13 + x53 + x61 <= 1
c56:  + x7 + x39 + x55 <= 1
c57:  + x10 + x12 + x24 <= 1
c58:  + x19 + x21 + x33 <= 1
c59:  + x22 + x24 + x52 <= 1
c60:  + x23 + x28 + x31 <= 1
c61:  + x29 + x31 + x61 <= 1
c62:  + x19 + x22 + x30 <= 1
c63:  + x27 + x39 + x42 <= 1
c64:  + x10 + x22 + x54 <= 1
c65:  + x25 + x49 + x57 <= 1
c66:  + x3 + x5 <= 1
c67:  + x5 + x8 <= 1
c68:  + x14 + x38 + x45 <= 1
c69:  + x17 + x32 <= 1
c70:  + x11 + x39 + x41 <= 1
c71:  + x24 + x48 + x56 <= 1
c72:  + x3 + x51 <= 1
c73:  + x9 + x53 + x57 <= 1
c74:  + x23 + x52 + x55 <= 1
c75:  + x47 + x59 + x60 <= 1
c76:  + x2 + x5 <= 1
c77:  + x6 + x8 <= 1
c78:  + x5 + x12 <= 1
c79:  + x8 + x20 <= 1
c80:  + x5 + x21 <= 1
c81:  + x29 + x41 + x44 <= 1
c82:  + x30 + x38 + x44 <= 1
c83:  + x18 + x32 <= 1
c84:  + x5 + x37 <= 1
c85:  + x30 + x42 <= 1
c86:  + x31 + x51 <= 1
c87:  + x6 + x54 <= 1
c88:  + x2 + x13 <= 1
c89:  + x3 + x6 <= 1
c90:  + x7 + x8 <= 1
c91:  + x6 + x12 <= 1
c92:  + x2 + x14 <= 1
c93:  + x15 + x55 + x62 <= 1
c94:  + x2 + x17 <= 1
c95:  + x12 + x20 <= 1
c96:  + x7 + x21 <= 1
c97:  + x19 + x32 <= 1
c98:  + x27 + x35 + x40 <= 1
c99:  + x7 + x37 <= 1
c100:  + x42 + x43 <= 1
c101:  + x17 + x48 <= 1
c102:  + x2 + x50 <= 1
c103:  + x35 + x51 <= 1
c104:  + x53 + x56 + x60 <= 1
c105:  + x7 + x54 <= 1
c106:  + x47 + x55 + x61 <= 1
c107:  + x3 + x9 <= 1
c108:  + x12 + x14 <= 1
c109:  + x20 + x21 <= 1
c110:  + x11 + x23 <= 1
c111:  + x17 + x25 <= 1
c112:  + x14 + x26 <= 1
c113:  + x14 + x29 <= 1
c114:  + x20 + x32 <= 1
c115:  + x9 + x37 <= 1
c116:  + x42 + x45 <= 1
c117:  + x19 + x48 <= 1
c118:  + x2 + x49 <= 1
c119:  + x22 + x50 <= 1
c120:  + x39 + x51 <= 1
c121:  + x23 + x54 <= 1
c122:  + x10 + x57 <= 1
c123:  + x3 + x15 <= 1
c124:  + x8 + x10 <= 1
c125:  + x9 + x21 <= 1
c126:  + x24 + x25 <= 1
c127:  + x26 + x30 <= 1
c128:  + x14 + x28 <= 1
c129:  + x17 + x29 <= 1
c130:  + x24 + x32 <= 1
c131:  + x3 + x33 <= 1
c132:  + x2 + x34 <= 1
c133:  + x34 + x37 <= 1
c134:  + x13 + x41 <= 1
c135:  + x42 + x46 <= 1
c136:  + x20 + x48 <= 1
c137:  + x29 + x49 <= 1
c138:  + x38 + x50 <= 1
c139:  + x50 + x51 <= 1
c140:  + x8 + x52 <= 1
c141:  + x5 + x53 <= 1
c142:  + x26 + x54 <= 1
c143:  + x41 + x57 <= 1
c144:  + x12 + x60 <= 1
c145:  + x45 + x61 <= 1
c146:  + x13 + x15 <= 1
c147:  + x17 + x21 <= 1
c148:  + x20 + x23 <= 1
c149:  + x25 + x27 <= 1
c150:  + x21 + x28 <= 1
c151:  + x18 + x30 <= 1
c152:  + x31 + x59 + x62 <= 1
c153:  + x32 + x34 <= 1
c154:  + x25 + x33 <= 1
c155:  + x7 + x35 <= 1
c156:  + x8 + x36 <= 1
c157:  + x37 + x45 <= 1
c158:  + x25 + x40 <= 1
c159:  + x42 + x50 <= 1
c160:  + x28 + x48 <= 1
c161:  + x37 + x49 <= 1
c162:  + x51 + x53 <= 1
c163:  + x21 + x52 <= 1
c164:  + x51 + x54 <= 1
c165:  + x8 + x56 <= 1
c166:  + x42 + x57 <= 1
c167:  + x10 + x58 <= 1
c168:  + x15 + x60 <= 1
c169:  + x49 + x61 <= 1
c170:  + x3 + x17 <= 1
c171:  + x12 + x13 <= 1
c172:  + x20 + x22 <= 1
c173:  + x23 + x30 <= 1
c174:  + x26 + x56 <= 1
c175:  + x19 + x29 <= 1
c176:  + x32 + x35 <= 1
c177:  + x29 + x33 <= 1
c178:  + x12 + x36 <= 1
c179:  + x40 + x43 <= 1
c180:  + x27 + x41 <= 1
c181:  + x32 + x44 <= 1
c182:  + x34 + x46 <= 1
c183:  + x35 + x48 <= 1
c184:  + x37 + x52 <= 1
c185:  + x7 + x53 <= 1
c186:  + x54 + x55 <= 1
c187:  + x54 + x57 <= 1
c188:  + x26 + x58 <= 1
c189:  + x28 + x60 <= 1
c190:  + x51 + x61 <= 1
c191:  + x3 + x18 <= 1
c192:  + x14 + x15 <= 1
c193:  + x22 + x36 <= 1
c194:  + x23 + x39 <= 1
c195:  + x30 + x31 <= 1
c196:  + x33 + x45 <= 1
c197:  + x38 + x46 <= 1
c198:  + x40 + x48 <= 1
c199:  + x41 + x43 <= 1
c200:  + x42 + x58 <= 1
c201:  + x44 + x60 <= 1
c202:  + x49 + x56 <= 1
c203:  + x50 + x52 <= 1
c204:  + x53 + x55 <= 1
c205:  + x57 + x61 <= 1



Binary
x0
x1
x2
x3
x4
x5
x6
x7
x8
x9
x10
x11
x12
x13
x14
x15
x16
x17
x18
x19
x20
x21
x22
x23
x24
x25
x26
x27
x28
x29
x30
x31
x32
x33
x34
x35
x36
x37
x38
x39
x40
x41
x42
x43
x44
x45
x46
x47
x48
x49
x50
x51
x52
x53
x54
x55
x56
x57
x58
x59
x60
x61
x62
x63


End